n_res = 4;
rc = [ 12, 11, 14, 10 ];
n_tasks = 30;
d = [ 3, 4, 4, 9, 10, 10, 3, 5, 6, 5, 2, 3, 3, 1, 7, 6, 5, 2, 8, 6, 8, 8, 8, 2, 8, 1, 6, 6, 6, 1 ];
rr = [| 0, 9, 0, 0, 0, 0, 0, 0, 0, 0, 0, 10, 0, 0, 0, 0, 7, 0, 8, 0, 0, 0, 0, 0, 4, 0, 3, 0, 0, 0
      | 7, 0, 10, 0, 0, 0, 0, 0, 0, 0, 0, 0, 0, 0, 8, 0, 0, 0, 0, 0, 0, 0, 3, 5, 0, 0, 0, 0, 8, 1
      | 0, 0, 0, 1, 10, 10, 0, 0, 8, 0, 0, 0, 0, 0, 0, 0, 0, 0, 0, 1, 6, 0, 0, 0, 0, 8, 0, 7, 0, 0
      | 0, 0, 0, 0, 0, 0, 1, 6, 0, 1, 3, 0, 3, 7, 0, 6, 0, 3, 0, 0, 0, 9, 0, 0, 0, 0, 0, 0, 0, 0 |];
suc = [ { 2 }, 
        { 3 }, 
        { 4 }, 
        { 5 }, 
        { 6 }, 
        { 7 }, 
        { 8 }, 
        { 9 }, 
        { 10 }, 
        { 11 }, 
        { 12 }, 
        { 13 }, 
        { 14 }, 
        { 15 }, 
        { 16 }, 
        { 17 }, 
        { 18 }, 
        { 19 }, 
        { 20 }, 
        { 21 }, 
        { 22 }, 
        { 23 }, 
        { 24 }, 
        { 25 }, 
        { 26 }, 
        { 27 }, 
        { 28 }, 
        { 29 }, 
        { 30 }, 
        {  }]; 
